(set-logic QF_FP)
(set-info :smt-lib-version 2.0)
(set-info :category "crafted")
(set-info :source |Alberto Griggio <griggio@fbk.eu>. These benchmarks were used for the evaluation in the following paper: L. Haller, A. Griggio, M. Brain, D. Kroening: Deciding floating-point logic with systematic abstraction. FMCAD 2012. Real-numbered literals have been automatically translated by MathSAT|)
(set-info :status unknown)
;; MathSAT API call trace
;; generated on 05/20/15 17:24:51

(declare-fun b25 () (_ FloatingPoint 8 24))
(declare-fun b14 () (_ FloatingPoint 11 53))
(declare-fun b28 () (_ FloatingPoint 8 24))
(declare-fun b20 () (_ FloatingPoint 11 53))
(declare-fun b9 () (_ FloatingPoint 8 24))
(define-fun _t_3 () RoundingMode RNE)
(define-fun _t_9 () (_ FloatingPoint 8 24) b9)
(define-fun _t_10 () (_ FloatingPoint 8 24) (fp.mul _t_3 _t_9 _t_9))
(define-fun _t_11 () (_ FloatingPoint 8 24) (fp.add _t_3 _t_9 _t_10))
(define-fun _t_12 () (_ FloatingPoint 11 53) ((_ to_fp 11 53) _t_3 _t_11))
(define-fun _t_13 () (_ FloatingPoint 11 53) b20)
(define-fun _t_14 () Bool (fp.lt _t_12 _t_13))
(define-fun _t_15 () Bool (not _t_14))
(define-fun _t_16 () (_ FloatingPoint 8 24) b28)
(define-fun _t_17 () Bool (fp.leq _t_16 _t_9))
(define-fun _t_18 () (_ FloatingPoint 8 24) b25)
(define-fun _t_19 () Bool (fp.leq _t_9 _t_18))
(define-fun _t_20 () Bool (and _t_17 _t_19))
(define-fun _t_21 () Bool (and _t_15 _t_20))
(define-fun _t_22 () (_ FloatingPoint 11 53) b14)
(define-fun _t_23 () Bool (fp.lt _t_12 _t_22))
(define-fun _t_24 () Bool (and _t_21 _t_23))
(assert _t_24)
(check-sat)
